c generated by sgen3tocnf
c nLits = 621
c actual nVars = 207
c Command: sgen3tocnf 70 15 0 0 210 3 1 0 /dev/null
p cnf 210 277
-22 -1 0
-22 -118 0
-1 -118 0
-175 -148 0
-175 -154 0
-148 -154 0
-2 -94 0
-2 -115 0
-94 -115 0
-82 -109 0
-82 -13 0
-109 -13 0
-208 -202 0
-208 -31 0
-202 -31 0
-106 -151 0
-106 -58 0
-151 -58 0
-49 -4 0
-49 -157 0
-4 -157 0
-127 -209 0
-127 -40 0
-209 -40 0
-193 -136 0
-193 -64 0
-136 -64 0
-124 -112 0
-124 -83 0
-112 -83 0
-113 -52 0
-113 -166 0
-52 -166 0
-65 -155 0
-65 -50 0
-155 -50 0
-43 -121 0
-43 -107 0
-121 -107 0
-53 -139 0
-53 -110 0
-139 -110 0
-149 -19 0
-149 -89 0
-19 -89 0
-167 -160 0
-167 -163 0
-160 -163 0
-28 -100 0
-28 -10 0
-100 -10 0
-133 -34 0
-133 -29 0
-34 -29 0
-55 -84 0
-55 -145 0
-84 -145 0
-79 -61 0
-79 -103 0
-61 -103 0
-205 -70 0
-205 -142 0
-70 -142 0
-5 -143 0
-5 -137 0
-143 -137 0
-104 -116 0
-104 -46 0
-116 -46 0
-97 -47 0
-97 -35 0
-47 -35 0
-7 -98 0
-7 -62 0
-98 -62 0
-36 -80 0
-36 -76 0
-80 -76 0
-196 -181 0
-196 -210 0
-181 -210 0
-111 -134 0
-111 -152 0
-134 -152 0
-190 -119 0
-190 -150 0
-119 -150 0
-178 -130 0
-178 -135 0
-130 -135 0
-185 -105 0
-185 -99 0
-105 -99 0
-117 -206 0
-117 -37 0
-206 -37 0
-199 -66 0
-199 -54 0
-66 -54 0
-144 -59 0
-144 -23 0
-59 -23 0
-38 -56 0
-38 -91 0
-56 -91 0
-164 -172 0
-164 -6 0
-172 -6 0
-92 -186 0
-92 -67 0
-186 -67 0
-85 -77 0
-85 -176 0
-77 -176 0
-73 -68 0
-73 -179 0
-68 -179 0
-14 -146 0
-14 -114 0
-146 -114 0
-95 -86 0
-95 -207 0
-86 -207 0
-16 -191 0
-16 -140 0
-191 -140 0
-20 -197 0
-20 -161 0
-197 -161 0
-11 -200 0
-11 -21 0
-200 -21 0
-32 -187 0
-32 -101 0
-187 -101 0
-120 -93 0
-120 -182 0
-93 -182 0
-141 -44 0
-141 -8 0
-44 -8 0
-147 -74 0
-147 -122 0
-74 -122 0
-41 -158 0
-41 -169 0
-158 -169 0
-153 -12 0
-153 -195 0
-12 -195 0
-162 -17 0
-162 -201 0
-17 -201 0
-123 -33 0
-123 -57 0
-33 -57 0
-203 -25 0
-203 -96 0
-25 -96 0
-102 -39 0
-102 -173 0
-39 -173 0
-156 -128 0
-156 -125 0
-128 -125 0
-48 -108 0
-48 -204 0
-108 -204 0
-71 -170 0
-71 -18 0
-170 -18 0
-26 -165 0
-26 -87 0
-165 -87 0
-131 -15 0
-131 -3 0
-15 -3 0
-69 -42 0
-69 -188 0
-42 -188 0
-138 -180 0
-138 -198 0
-180 -198 0
-189 -30 0
-189 -45 0
-30 -45 0
-183 -9 0
-183 -192 0
-9 -192 0
-78 -51 0
-78 -129 0
-51 -129 0
-159 -177 0
-159 -132 0
-177 -132 0
-174 -168 0
-174 -72 0
-168 -72 0
-63 -90 0
-63 -75 0
-90 -75 0
-171 -24 0
-171 -81 0
-24 -81 0
-60 -126 0
-60 -27 0
-126 -27 0
2 1 3 0
5 4 6 0
7 9 8 0
11 12 10 0
14 15 13 0
16 17 18 0
20 19 21 0
22 24 23 0
26 25 27 0
28 30 29 0
32 33 31 0
36 34 35 0
38 39 37 0
41 42 40 0
43 44 45 0
48 47 46 0
49 51 50 0
53 52 54 0
55 56 57 0
60 59 58 0
63 61 62 0
65 66 64 0
69 68 67 0
71 70 72 0
73 74 75 0
78 77 76 0
79 80 81 0
82 84 83 0
85 86 87 0
90 89 0
92 93 91 0
95 94 96 0
97 98 99 0
102 100 101 0
104 105 103 0
106 108 107 0
111 109 110 0
113 112 114 0
117 116 115 0
120 119 118 0
123 121 122 0
124 126 125 0
127 128 129 0
131 130 132 0
133 134 135 0
138 136 137 0
141 139 140 0
144 143 142 0
147 146 145 0
149 148 150 0
153 151 152 0
156 155 154 0
159 158 157 0
162 160 161 0
164 165 163 0
167 168 166 0
171 170 169 0
174 172 173 0
175 177 176 0
178 180 179 0
183 181 182 0
185 186 0
189 187 188 0
190 191 192 0
193 195 0
196 197 198 0
199 200 201 0
203 202 204 0
205 206 207 0
208 209 210 0
